c Reduced graph for p36 generated by Cyril Grelier
p edge 77 564
e 1 2
e 1 3
e 1 5
e 1 7
e 1 9
e 1 11
e 1 13
e 1 14
e 1 16
e 1 18
e 1 21
e 1 24
e 1 27
e 1 28
e 1 29
e 1 39
e 1 40
e 1 73
e 2 4
e 2 6
e 2 8
e 2 10
e 2 12
e 2 13
e 2 15
e 2 17
e 2 19
e 2 22
e 2 25
e 2 27
e 2 28
e 2 29
e 2 39
e 2 40
e 2 74
e 3 4
e 3 5
e 3 7
e 3 9
e 3 11
e 3 14
e 3 16
e 3 18
e 3 20
e 3 21
e 3 24
e 3 30
e 3 31
e 3 32
e 3 44
e 3 45
e 3 73
e 4 6
e 4 8
e 4 10
e 4 12
e 4 15
e 4 17
e 4 19
e 4 20
e 4 22
e 4 25
e 4 30
e 4 31
e 4 32
e 4 44
e 4 45
e 4 74
e 5 6
e 5 7
e 5 9
e 5 11
e 5 14
e 5 16
e 5 18
e 5 21
e 5 23
e 5 24
e 5 33
e 5 34
e 5 35
e 5 47
e 5 48
e 5 73
e 6 8
e 6 10
e 6 12
e 6 15
e 6 17
e 6 19
e 6 22
e 6 23
e 6 25
e 6 33
e 6 34
e 6 35
e 6 47
e 6 48
e 6 74
e 7 8
e 7 9
e 7 11
e 7 14
e 7 16
e 7 18
e 7 21
e 7 24
e 7 26
e 7 37
e 7 38
e 7 55
e 7 56
e 7 73
e 8 10
e 8 12
e 8 15
e 8 17
e 8 19
e 8 22
e 8 25
e 8 26
e 8 37
e 8 38
e 8 55
e 8 56
e 8 74
e 9 10
e 9 11
e 9 14
e 9 16
e 9 18
e 9 21
e 9 24
e 9 36
e 9 49
e 9 50
e 9 65
e 9 66
e 9 73
e 10 12
e 10 15
e 10 17
e 10 19
e 10 22
e 10 25
e 10 36
e 10 49
e 10 50
e 10 65
e 10 66
e 10 74
e 11 12
e 11 14
e 11 16
e 11 18
e 11 21
e 11 24
e 11 51
e 11 52
e 11 53
e 11 67
e 11 68
e 11 73
e 12 15
e 12 17
e 12 19
e 12 22
e 12 25
e 12 51
e 12 52
e 12 53
e 12 67
e 12 68
e 12 74
e 13 20
e 13 23
e 13 26
e 13 27
e 13 28
e 13 29
e 13 36
e 13 39
e 13 40
e 13 41
e 13 42
e 13 43
e 13 46
e 13 54
e 14 15
e 14 16
e 14 18
e 14 21
e 14 24
e 14 41
e 14 57
e 14 58
e 14 72
e 14 73
e 15 17
e 15 19
e 15 22
e 15 25
e 15 41
e 15 57
e 15 58
e 15 72
e 15 74
e 16 17
e 16 18
e 16 21
e 16 24
e 16 42
e 16 59
e 16 60
e 16 73
e 16 75
e 17 19
e 17 22
e 17 25
e 17 42
e 17 59
e 17 60
e 17 74
e 17 75
e 18 19
e 18 21
e 18 24
e 18 43
e 18 61
e 18 62
e 18 73
e 18 76
e 19 22
e 19 25
e 19 43
e 19 61
e 19 62
e 19 74
e 19 76
e 20 23
e 20 26
e 20 30
e 20 31
e 20 32
e 20 36
e 20 41
e 20 42
e 20 43
e 20 44
e 20 45
e 20 46
e 20 54
e 21 22
e 21 24
e 21 46
e 21 63
e 21 64
e 21 73
e 21 77
e 22 25
e 22 46
e 22 63
e 22 64
e 22 74
e 22 77
e 23 26
e 23 33
e 23 34
e 23 35
e 23 36
e 23 41
e 23 42
e 23 43
e 23 46
e 23 47
e 23 48
e 23 54
e 24 25
e 24 54
e 24 69
e 24 70
e 24 71
e 24 73
e 25 54
e 25 69
e 25 70
e 25 71
e 25 74
e 26 36
e 26 37
e 26 38
e 26 41
e 26 42
e 26 43
e 26 46
e 26 54
e 26 55
e 26 56
e 27 28
e 27 29
e 27 30
e 27 33
e 27 39
e 27 40
e 27 49
e 27 51
e 27 57
e 27 61
e 27 63
e 27 69
e 28 29
e 28 31
e 28 34
e 28 37
e 28 39
e 28 40
e 28 52
e 28 59
e 28 62
e 28 64
e 28 70
e 29 32
e 29 35
e 29 38
e 29 39
e 29 40
e 29 50
e 29 53
e 29 58
e 29 60
e 29 71
e 30 31
e 30 32
e 30 33
e 30 44
e 30 45
e 30 49
e 30 51
e 30 57
e 30 61
e 30 63
e 30 69
e 31 32
e 31 34
e 31 37
e 31 44
e 31 45
e 31 52
e 31 59
e 31 62
e 31 64
e 31 70
e 32 35
e 32 38
e 32 44
e 32 45
e 32 50
e 32 53
e 32 58
e 32 60
e 32 71
e 33 34
e 33 35
e 33 47
e 33 48
e 33 49
e 33 51
e 33 57
e 33 61
e 33 63
e 33 69
e 34 35
e 34 37
e 34 47
e 34 48
e 34 52
e 34 59
e 34 62
e 34 64
e 34 70
e 35 38
e 35 47
e 35 48
e 35 50
e 35 53
e 35 58
e 35 60
e 35 71
e 36 41
e 36 42
e 36 43
e 36 46
e 36 49
e 36 50
e 36 54
e 36 65
e 36 66
e 37 38
e 37 52
e 37 55
e 37 56
e 37 59
e 37 62
e 37 64
e 37 70
e 38 50
e 38 53
e 38 55
e 38 56
e 38 58
e 38 60
e 38 71
e 39 40
e 39 44
e 39 47
e 39 55
e 39 65
e 39 67
e 39 72
e 39 77
e 40 45
e 40 48
e 40 56
e 40 66
e 40 68
e 40 75
e 40 76
e 41 42
e 41 43
e 41 46
e 41 54
e 41 57
e 41 58
e 41 72
e 42 43
e 42 46
e 42 54
e 42 59
e 42 60
e 42 75
e 43 46
e 43 54
e 43 61
e 43 62
e 43 76
e 44 45
e 44 47
e 44 55
e 44 65
e 44 67
e 44 72
e 44 77
e 45 48
e 45 56
e 45 66
e 45 68
e 45 75
e 45 76
e 46 54
e 46 63
e 46 64
e 46 77
e 47 48
e 47 55
e 47 65
e 47 67
e 47 72
e 47 77
e 48 56
e 48 66
e 48 68
e 48 75
e 48 76
e 49 50
e 49 51
e 49 57
e 49 61
e 49 63
e 49 65
e 49 66
e 49 69
e 50 53
e 50 58
e 50 60
e 50 65
e 50 66
e 50 71
e 51 52
e 51 53
e 51 57
e 51 61
e 51 63
e 51 67
e 51 68
e 51 69
e 52 53
e 52 59
e 52 62
e 52 64
e 52 67
e 52 68
e 52 70
e 53 58
e 53 60
e 53 67
e 53 68
e 53 71
e 54 69
e 54 70
e 54 71
e 55 56
e 55 65
e 55 67
e 55 72
e 55 77
e 56 66
e 56 68
e 56 75
e 56 76
e 57 58
e 57 61
e 57 63
e 57 69
e 57 72
e 58 60
e 58 71
e 58 72
e 59 60
e 59 62
e 59 64
e 59 70
e 59 75
e 60 71
e 60 75
e 61 62
e 61 63
e 61 69
e 61 76
e 62 64
e 62 70
e 62 76
e 63 64
e 63 69
e 63 77
e 64 70
e 64 77
e 65 66
e 65 67
e 65 72
e 65 77
e 66 68
e 66 75
e 66 76
e 67 68
e 67 72
e 67 77
e 68 75
e 68 76
e 69 70
e 69 71
e 70 71
e 72 77
e 73 74
e 75 76
